tsp_instances/TSP20/instance45.tsp
NODE_COORD_SECTION
0 36 162
1 58 126
2 3 24
3 158 21
4 113 170
5 165 168
6 1 184
7 31 38
8 190 144
9 37 54
10 2 68
11 124 128
12 197 145
13 194 196
14 79 100
15 171 54
16 16 127
17 73 170
18 5 29
19 103 20
