tsp_instances/TSP20/instance45.opt.tour
TOUR_SECTION
1
7
17
11
19
3
8
10
20
4
16
9
13
14
6
5
12
15
2
18
-1